J = 15;
M = 5;

machine = array2d(JOB, TASK, [
    5,3,2,1,4,
    4,2,1,3,5,
    3,5,1,4,2,
    2,4,5,1,3,
    1,3,4,5,2,
    5,4,2,3,1,
    3,1,5,4,2,
    4,5,3,2,1,
    2,1,4,5,3,
    5,2,3,1,4,
    3,4,1,2,5,
    1,5,2,4,3,
    4,3,5,2,1,
    2,5,1,3,4,
    3,2,4,1,5
]);

duration = array2d(JOB, MACH, [
    77,43,56,91,62,
    44,83,52,19,93,
    55,38,91,77,42,
    61,88,49,70,36,
    93,41,85,22,76,
    68,71,44,97,51,
    27,94,66,53,88,
    78,55,39,62,47,
    63,26,87,49,75,
    56,91,32,68,45,
    95,41,52,77,29,
    64,53,79,36,88,
    33,67,48,95,52,
    71,29,84,56,93,
    58,77,35,42,89
]);
